c read Graph
c width = 195
c time = 82 ms
c width = 19
c time = 198 ms
c width = 18
c time = 280 ms
c width = 17
c time = 305 ms
c width = 16
c time = 814 ms
c width = 15
c time = 2104 ms
c width = 14
c time = 4116 ms
c width = 14
c time = 5466 ms
s td 185 15 208
b 1 1 2 17
b 2 2 3 17 18
b 3 14 15 31 32
b 4 3 17 18 33
b 5 14 31 32 48
b 6 161 177 178 194
b 7 176 191 192 207
b 8 161 178 194 195
b 9 176 191 206 207
b 10 3 4 5 20
b 11 3 5 19 20 34 49
b 12 5 19 20 34 36 49 51
b 13 5 20 34 36 49 51 66
b 14 5 20 36 49 51 66 81
b 15 49 65 66 81
b 16 5 20 22 36 37 51 66 81
b 17 5 22 36 37 51 53 66 68 81
b 18 5 22 37 51 53 66 68 81 83
b 19 5 22 37 53 66 68 81 83 98
b 20 66 81 82 83 98
b 21 5 22 37 39 53 54 68 81 83 98
b 22 22 37 38 39 54
b 23 5 22 39 53 54 68 71 81 83 87 98 100 102 117
b 24 5 22 39 54 56 71 81 83 87 98 100 102 117
b 25 39 54 55 56 71
b 26 5 22 39 56 71 81 83 87 98 100 102 115 117
b 27 5 22 39 56 71 81 87 98 100 102 115 117 132
b 28 100 115 116 117 132
b 29 5 22 39 56 71 81 87 98 102 115 117 130 132 145
b 30 5 22 39 56 71 87 102 115 117 130 132 145 147
b 31 5 22 39 56 71 87 102 117 130 132 145 147 164 181 198
b 32 5 22 39 56 71 87 102 117 132 147 149 164 181 198
b 33 5 22 39 56 71 87 102 117 132 149 164 166 181 183 198
b 34 166 181 182 183 198
b 35 149 164 165 166 181
b 36 5 22 39 56 71 87 102 117 132 134 149 166 183 198
b 37 5 22 39 56 71 87 102 117 134 149 151 166 183 198
b 38 5 22 39 56 71 87 102 117 134 151 166 168 183 198
b 39 151 166 167 168 183
b 40 5 22 39 56 71 87 102 117 134 151 168 183 185 198 202
b 41 5 22 39 56 71 87 102 117 119 134 151 168 185 202
b 42 102 117 118 119 134
b 43 5 22 39 56 71 87 102 119 134 136 151 168 185 202
b 44 119 134 135 136 151
b 45 5 22 39 56 71 87 102 119 136 151 153 168 185 202
b 46 5 22 39 56 71 87 102 119 136 153 168 170 185 202
b 47 153 168 169 170 185
b 48 5 22 39 56 71 87 102 104 119 136 153 170 185 202
b 49 87 102 103 104 119
b 50 5 22 39 56 71 87 88 104 119 136 153 170 185 202
b 51 5 22 39 56 71 73 88 104 119 136 153 170 185 202
b 52 5 22 39 56 73 88 104 119 121 136 153 170 185 202
b 53 5 22 39 56 73 88 104 105 121 136 153 170 185 202
b 54 5 22 39 56 73 88 90 105 121 136 153 170 185 202
b 55 73 88 89 90 105
b 56 5 22 39 56 73 90 105 121 136 138 153 170 185 202
b 57 5 22 39 56 73 90 105 121 122 138 153 170 185 202
b 58 5 9 22 24 39 56 73 90 105 122 138 153 170 185 202
b 59 9 24 26 39 41 56 73 90 105 122 138 153 170 185 202
b 60 9 26 39 41 56 58 73 90 105 122 138 153 170 185 202
b 61 41 56 57 58 73
b 62 9 26 41 43 58 73 90 105 122 138 153 170 185 202
b 63 9 26 43 58 73 90 105 122 138 153 155 170 185 202
b 64 138 153 154 155 170
b 65 9 26 43 58 73 75 90 105 122 138 155 170 185 202
b 66 9 26 43 58 60 75 90 105 122 138 155 170 185 202
b 67 9 26 43 60 75 90 105 107 122 138 155 170 185 202
b 68 9 26 43 60 75 90 92 107 122 138 155 170 185 202
b 69 75 90 91 92 107
b 70 90 105 106 107 122
b 71 43 58 59 60 75
b 72 58 73 74 75 90
b 73 26 41 42 43 58
b 74 9 24 25 26 41
b 75 24 39 40 41 56
b 76 5 7 9 22 24 39
b 77 7 22 23 24 39
b 78 7 8 9 24
b 79 5 6 7 22
b 80 121 136 137 138 153
b 81 104 119 120 121 136
b 82 56 71 72 73 88
b 83 136 151 152 153 168
b 84 168 183 185 198 200 202
b 85 185 200 201 202
b 86 183 198 199 200
b 87 168 183 184 185 200
b 88 134 149 150 151 166
b 89 117 132 133 134 149
b 90 132 147 148 149 164
b 91 130 145 147 164 181 196 198
b 92 181 196 197 198
b 93 130 145 147 164 179 181 196
b 94 130 145 147 162 164 179 196
b 95 145 162 179 195 196
b 96 145 161 162 179 195
b 97 161 162 178 179 195
b 98 130 145 146 147 162
b 99 147 162 163 164 179
b 100 164 179 180 181 196
b 101 115 130 131 132 147
b 102 81 98 113 115 130 145
b 103 98 113 114 115 130
b 104 113 129 130 145
b 105 81 97 98 113
b 106 83 98 99 100 115
b 107 53 54 68 71 83 85 87 100 102 117
b 108 85 100 101 102 117
b 109 68 83 84 85 100
b 110 53 54 68 70 71 85 87 102
b 111 70 85 86 87 102
b 112 53 68 69 70 85
b 113 51 66 67 68 83
b 114 36 51 52 53 68
b 115 5 20 21 22 37
b 116 34 49 50 51 66
b 117 19 34 35 36 51
b 118 3 19 33 34 49
b 119 3 18 19 33 34
b 120 60 75 76 77 92
b 121 9 26 43 60 77 79 94 96 111
b 122 9 26 43 60 75 92 107 122 138 139 155 170 185 202
b 123 9 26 43 60 75 92 107 122 124 139 155 170 185 202
b 124 9 26 43 60 75 92 107 109 124 139 155 170 185 202
b 125 9 26 43 60 75 77 92 109 124 139 155 170 185 202
b 126 9 26 43 60 77 92 94 109 124 139 155 170 185 202
b 127 9 26 43 60 77 94 96 109 111 124 139 155 170 185 202
b 128 94 96 109 111 124 126 139 155 170 185 202
b 129 96 109 111 124 126 139 143 155 160 170 185 202
b 130 107 122 123 124 139
b 131 92 107 108 109 124
b 132 9 13 26 28 43 60 77 79 94 96
b 133 9 11 13 26 28 43
b 134 9 10 11 26
b 135 11 12 13 28
b 136 11 26 27 28 43
b 137 13 28 43 60 62 77 79 94 96
b 138 62 77 78 79 94
b 139 13 28 43 45 60 62 77 79 96
b 140 13 28 45 62 64 79 96
b 141 13 28 45 47 62 64 79
b 142 13 28 30 45 47 62 64
b 143 30 45 46 47 62
b 144 13 30 47 48 64
b 145 13 14 30 47 48
b 146 14 30 31 47 48
b 147 13 28 29 30 45
b 148 47 62 63 64 79
b 149 64 79 80 96
b 150 45 60 61 62 77
b 151 28 43 44 45 60
b 152 77 92 93 94 109
b 153 109 124 126 139 141 143 155 160 170 185 202
b 154 124 126 139 141 143 155 156 160 170 185 202
b 155 124 139 140 141 156
b 156 126 141 143 155 156 160 170 185 187 202
b 157 126 141 143 155 156 160 170 172 187 202
b 158 126 141 143 156 158 160 172 187 202
b 159 141 143 156 158 160 172 173 187 202
b 160 143 158 160 172 173 187 202 204
b 161 143 158 160 172 173 187 189 204
b 162 143 158 160 173 189 204 206
b 163 143 158 160 173 189 190 206
b 164 143 158 160 173 175 190 206
b 165 160 175 176 190 206
b 166 175 176 190 191 206
b 167 143 158 159 160 175
b 168 158 173 174 175 190
b 169 189 204 205 206
b 170 172 187 188 189 204
b 171 187 202 203 204
b 172 141 156 157 158 173
b 173 126 141 142 143 158
b 174 155 170 171 172 187
b 175 170 185 186 187 202
b 176 109 124 125 126 141
b 177 94 109 110 111 126
b 178 79 94 95 96 111
b 179 96 111 126 128 143 160
b 180 111 126 127 128 143
b 181 96 111 112 128
b 182 128 143 144 160
b 183 192 207 208
b 184 177 193 194
b 185 15 16 32
1 2
2 4
3 185
3 5
4 119
5 146
6 184
6 8
7 183
7 9
8 97
9 166
10 11
11 118
11 12
12 117
12 13
13 116
13 14
14 16
14 15
16 115
16 17
17 114
17 18
18 113
18 19
19 21
19 20
21 23
21 22
23 107
23 24
24 26
24 25
26 106
26 27
27 29
27 28
29 102
29 30
30 101
30 31
31 91
31 32
32 90
32 33
33 36
33 35
33 34
36 89
36 37
37 88
37 38
38 40
38 39
40 84
40 41
41 43
41 42
43 45
43 44
45 83
45 46
46 48
46 47
48 50
48 49
50 51
51 82
51 52
52 81
52 53
53 54
54 56
54 55
56 80
56 57
57 58
58 76
58 59
59 74
59 75
59 60
60 61
60 62
62 63
62 73
63 65
63 64
65 72
65 66
66 71
66 67
67 70
67 68
68 122
68 69
76 79
76 78
76 77
84 86
84 87
84 85
91 92
91 93
93 94
93 100
94 98
94 99
94 95
95 96
96 97
102 105
102 104
102 103
107 110
107 109
107 108
110 111
110 112
118 119
120 125
121 132
121 178
121 127
122 123
123 130
123 124
124 131
124 125
125 126
126 152
126 127
127 128
128 177
128 129
129 153
129 179
132 137
132 133
133 134
133 135
133 136
137 138
137 139
139 151
139 150
139 140
140 149
140 141
141 148
141 142
142 144
142 147
142 143
144 145
145 146
153 154
153 176
154 155
154 156
156 175
156 157
157 174
157 158
158 173
158 159
159 172
159 160
160 171
160 161
161 170
161 162
162 163
162 169
163 164
164 165
164 167
164 168
165 166
179 180
179 181
179 182
